879.71
0 13 17 18 19 15 16 14 12 11 0
0 1 99 100 97 93 92 94 95 96 98 0
0 69 66 68 64 61 72 74 62 63 65 67 0
0 84 83 82 81 78 76 71 70 73 77 79 80 0
0 5 3 9 6 4 75 91 89 88 85 86 87 90 0
0 34 36 39 38 37 35 31 33 32 0
0 55 54 53 56 58 60 59 57 0
0 43 42 41 40 44 46 45 48 51 50 52 49 47 20 21 23 0
0 7 2 8 10 26 28 27 29 24 25 22 0
0 30 0
